problems/GracefulHelms/GracefulHelms-models/compact/O2/minion/model-n13-solution000001.eprime-solution
language ESSENCE' 1.0

letting colouring_Function1D be
        [0, 1, 3, 6, 2, 7, 13, 4, 11, 19, 5, 15, 26, 39, 14, 18, 22, 31, 29, 37, 34, 32, 36, 33, 35, 8, 38; int(0..26)]
letting edgeID_Function1D be
        [1, 2, 3, 4, 5, 6, 9, 7, 8, 14, 10, 11, 26, 39, 13, 15, 16, 29, 22, 24, 30, 21, 17, 28, 20, 18, 38, 37, 35, 32,
         36, 31, 25, 34, 27, 19, 33, 23, 12;
             int(0..38)]
